50
10786

564 814
511 340
457 138
727 648
44 603
222 451
575 279
63 911
510 454
483 319
726 583
316 668
963 635
577 38
843 206
153 822
996 272
199 576
72 320
125 478
653 268
6 259
228 997
849 720
249 413
477 777
939 594
227 519
430 142
881 310
19 826
839 695
853 981
656 21
193 164
703 53
426 139
249 12
377 420
452 116
339 435
73 981
684 996
157 36
629 596
416 862
630 314
919 708
580 10
472 620
